c
c tree example take from fig. 2 of
c Survey propagation: an algorithm for satisfiability
c A. Braunstein, M. Mezard, R. Zecchina
c
c 
p cnf 8 9
1 0
-2 0
-1 2 3 0
-3 4 0
3 5 0
4 0
4 -7 0
5 8 0
-5 6 0
